proyfinal/src/viki/013/experimentInOfficeAgust.take6.output/9e2fc4f4-1205-4643-bc29-bc26924e661f.als.dat
{'cnf.clauses': '118081',
 'cnf.totvars': '69608',
 'conflict literals': '3962',
 'conflicts': '341',
 'decisions': '9033',
 'memused.mb': '17.89',
 'outcome': 'UNSAT',
 'propagations': '506594',
 'restarts': '3',
 'solver.msecs': 53,
 'task.msecs': 123}
