proyfinal/src/viki/013/experimentInOfficeAgust.take6.output/9e2fc4f4-1205-4643-bc29-bc26924e661f.als.out
Reading from standard input... Use '--help' for help.
============================[ Problem Statistics ]=============================
|                                                                             |
|  Number of variables:         69608                                         |
|  Number of clauses:          118081                                         |
|  Parse time:                   0.02 s                                       |
|                                                                             |
============================[ Search Statistics ]==============================
| Conflicts |          ORIGINAL         |          LEARNT          | Progress |
|           |    Vars  Clauses Literals |    Limit  Clauses Lit/Cl |          |
===============================================================================
|       100 |   57038    81971   203023 |    30056       97     12 | 18.058 % |
|       250 |   57028    81799   202588 |    33061      216     12 | 18.073 % |
===============================================================================
restarts              : 3
conflicts             : 341            (6346 /sec)
decisions             : 9033           (0.00 % random) (168109 /sec)
propagations          : 506594         (9427987 /sec)
conflict literals     : 3962           (27.73 % deleted)
Memory used           : 17.89 MB
CPU time              : 0.053733 s

UNSATISFIABLE
